\ENCODING=ISO-8859-1
\Problem name: ilog.cplex

Minimize
 obj1: 100791 x1 + 108044 x2 + 95823 x3 + 105888 x4 + 97858 x5 + 106836 x6
       + 99621 x7 + 106502 x8 + 96817 x9 + 102354 x10 + 98041 x11 + 101843 x12
       + 107629 x13 + 101392 x14 + 98154 x15 + 95052 x16 + 109386 x17
       + 105522 x18 + 109626 x19 + 92879 x20 + 102197 x21 + 98443 x22
       + 98623 x23 + 101328 x24 + 94977 x25 + 94922 x26 + 108864 x27
       + 98931 x28 + 101386 x29 + 101791 x30 + 96682 x31 + 98138 x32
       + 96826 x33 + 99174 x34 + 92936 x35 + 100787 x36 + 105652 x37
       + 108382 x38 + 96162 x39 + 99763 x40 + 99651 x41 + 91873 x42 + 98610 x43
       + 95666 x44 + 96395 x45 + 90191 x46 + 109580 x47 + 104674 x48
       + 109156 x49 + 101018 x50 + 106214 x51 + 98184 x52 + 92296 x53
       + 93279 x54 + 94216 x55 + 94556 x56 + 103317 x57 + 107400 x58
       + 107149 x59 + 102234 x60 + 97624 x61 + 107137 x62 + 104733 x63
       + 101579 x64 + 91818 x65 + 96602 x66 + 100337 x67 + 97218 x68
       + 92538 x69 + 108608 x70 + 108470 x71 + 106316 x72 + 105881 x73
       + 109325 x74 + 107551 x75 + 96714 x76 + 107634 x77 + 96516 x78
       + 106960 x79 + 97991 x80 + 94911 x81 + 94496 x82 + 93206 x83
       + 107592 x84 + 93396 x85 + 108369 x86 + 96433 x87 + 98878 x88
       + 98614 x89 + 95094 x90 + 105564 x91 + 108272 x92 + 104556 x93
       + 99603 x94 + 108056 x95 + 94654 x96 + 98430 x97 + 90436 x98 + 98520 x99
       + 105721 x100 + 93231 x101 + 102270 x102 + 102278 x103 + 106541 x104
       + 91918 x105 + 107178 x106 + 98195 x107 + 102297 x108 + 95267 x109
       + 98859 x110 + 99176 x111 + 90344 x112 + 105469 x113 + 104508 x114
       + 94366 x115 + 96911 x116 + 104561 x117 + 103044 x118 + 98566 x119
       + 95878 x120 + 109080 x121 + 101152 x122 + 97814 x123 + 107537 x124
       + 91539 x125 + 98360 x126 + 91012 x127 + 94201 x128 + 98601 x129
       + 107444 x130 + 101635 x131 + 99759 x132 + 108026 x133 + 108219 x134
       + 96072 x135 + 94826 x136 + 104332 x137 + 95127 x138 + 103284 x139
       + 104323 x140 + 96512 x141 + 92016 x142 + 104249 x143 + 90107 x144
       + 90300 x145 + 91122 x146 + 109046 x147 + 97704 x148 + 102117 x149
       + 107510 x150 + 105087 x151 + 95627 x152 + 94458 x153 + 100450 x154
       + 105782 x155 + 101497 x156 + 97559 x157 + 99774 x158 + 99617 x159
       + 95834 x160 + 101450 x161 + 99583 x162 + 90119 x163 + 92910 x164
       + 109374 x165 + 94108 x166 + 96890 x167 + 100291 x168 + 109016 x169
       + 99313 x170 + 95139 x171 + 99792 x172 + 92485 x173 + 95930 x174
       + 100600 x175 + 92145 x176 + 99156 x177 + 95950 x178 + 107488 x179
       + 90896 x180 + 106394 x181 + 105230 x182 + 97010 x183 + 96711 x184
       + 95821 x185 + 105807 x186 + 94448 x187 + 104546 x188 + 106134 x189
       + 98133 x190 + 103931 x191 + 93014 x192 + 107383 x193 + 105607 x194
       + 91758 x195 + 97806 x196 + 96161 x197 + 91653 x198 + 101486 x199
       + 99186 x200 + 97329 x201 + 95934 x202 + 92043 x203 + 103456 x204
       + 108657 x205 + 96491 x206 + 95472 x207 + 99926 x208 + 91385 x209
       + 99727 x210 + 97443 x211 + 93066 x212 + 99101 x213 + 102182 x214
       + 100593 x215 + 105834 x216 + 107473 x217 + 98288 x218 + 90529 x219
       + 92010 x220 + 101099 x221 + 100500 x222 + 106243 x223 + 93714 x224
       + 105006 x225 + 94882 x226 + 101863 x227 + 96565 x228 + 98457 x229
       + 100695 x230 + 93578 x231 + 95090 x232 + 97508 x233 + 93336 x234
       + 109658 x235 + 99617 x236 + 97134 x237 + 101390 x238 + 91214 x239
       + 105132 x240 + 103768 x241 + 100635 x242 + 106647 x243 + 102415 x244
       + 104748 x245 + 100482 x246 + 103724 x247 + 102287 x248 + 92427 x249
       + 91661 x250 + 97866 x251 + 102685 x252 + 97752 x253 + 109423 x254
       + 108652 x255 + 93366 x256 + 108427 x257 + 97156 x258 + 106021 x259
       + 103461 x260 + 91145 x261 + 102775 x262 + 92954 x263 + 91613 x264
       + 109695 x265 + 102990 x266 + 108572 x267 + 95937 x268 + 93676 x269
       + 104133 x270 + 91647 x271 + 100859 x272 + 109751 x273 + 94072 x274
       + 91879 x275 + 102405 x276 + 105164 x277 + 91571 x278 + 106629 x279
       + 97594 x280 + 106851 x281 + 95405 x282 + 99753 x283 + 100793 x284
       + 96217 x285 + 103054 x286 + 98720 x287 + 92754 x288 + 107040 x289
       + 91954 x290 + 106356 x291 + 96462 x292 + 91908 x293 + 95053 x294
       + 104390 x295 + 108055 x296 + 91259 x297 + 96802 x298 + 107381 x299
       + 90752 x300 + 105058 x301 + 102820 x302 + 105506 x303 + 94580 x304
       + 99498 x305 + 97982 x306 + 107256 x307 + 94758 x308 + 102677 x309
       + 104067 x310 + 103600 x311 + 103721 x312 + 99705 x313 + 106430 x314
       + 96409 x315 + 104171 x316 + 103829 x317 + 96059 x318 + 99190 x319
       + 91056 x320 + 107595 x321 + 104717 x322 + 98415 x323 + 109541 x324
       + 96927 x325 + 100101 x326 + 97605 x327 + 98364 x328 + 96227 x329
       + 90705 x330 + 102966 x331 + 98117 x332 + 102925 x333 + 104943 x334
       + 100057 x335 + 91671 x336 + 105884 x337 + 94559 x338 + 97197 x339
       + 92266 x340 + 103606 x341 + 108493 x342 + 93253 x343 + 103701 x344
       + 105448 x345 + 90080 x346 + 104940 x347 + 106635 x348 + 91834 x349
       + 107850 x350 + 98157 x351 + 106761 x352 + 98557 x353 + 109458 x354
       + 96507 x355 + 101199 x356 + 94856 x357 + 108502 x358 + 103669 x359
       + 100191 x360 + 94261 x361 + 103577 x362 + 92534 x363 + 90846 x364
       + 103955 x365 + 97825 x366 + 92160 x367 + 104647 x368 + 98474 x369
       + 96871 x370 + 106576 x371 + 98219 x372 + 94074 x373 + 109554 x374
       + 97622 x375 + 100461 x376 + 99992 x377 + 92695 x378 + 103504 x379
       + 101974 x380 + 94666 x381 + 104552 x382 + 97709 x383 + 96493 x384
       + 90797 x385 + 100648 x386 + 96529 x387 + 93448 x388 + 109557 x389
       + 100405 x390 + 97717 x391 + 105763 x392 + 101296 x393 + 93309 x394
       + 97617 x395 + 97668 x396 + 107777 x397 + 99329 x398 + 109641 x399
       + 93577 x400 + 100944 x401 + 98757 x402 + 92674 x403 + 97667 x404
       + 107578 x405 + 105083 x406 + 107261 x407 + 97861 x408 + 96997 x409
       + 106976 x410 + 105232 x411 + 106391 x412 + 104192 x413 + 100787 x414
       + 104761 x415 + 108249 x416 + 108580 x417 + 106121 x418 + 107562 x419
       + 93124 x420 + 90905 x421 + 95621 x422 + 92331 x423 + 95351 x424
       + 106537 x425 + 97860 x426 + 109515 x427 + 90595 x428 + 108847 x429
       + 95555 x430 + 98828 x431 + 109640 x432 + 93263 x433 + 105285 x434
       + 93188 x435 + 91383 x436 + 105113 x437 + 109414 x438 + 100537 x439
       + 109525 x440 + 102508 x441 + 96115 x442 + 108486 x443 + 90405 x444
       + 109293 x445 + 109178 x446 + 95811 x447 + 93054 x448 + 92486 x449
       + 95732 x450 + 107027 x451 + 96505 x452 + 96543 x453 + 94238 x454
       + 95137 x455 + 94970 x456 + 91494 x457 + 101385 x458 + 96718 x459
       + 91917 x460 + 108960 x461 + 102202 x462 + 103889 x463 + 100820 x464
       + 91882 x465 + 92530 x466 + 91864 x467 + 105926 x468 + 95889 x469
       + 98949 x470 + 103119 x471 + 98337 x472 + 109780 x473 + 101761 x474
       + 98700 x475 + 93047 x476 + 91902 x477 + 91027 x478 + 98690 x479
       + 95816 x480 + 94152 x481 + 107740 x482 + 105906 x483 + 104085 x484
       + 105174 x485 + 97879 x486 + 99581 x487 + 107119 x488 + 94835 x489
       + 98361 x490 + 99073 x491 + 97115 x492 + 103156 x493 + 100777 x494
       + 91581 x495 + 95254 x496 + 108620 x497 + 101361 x498 + 92391 x499
       + 136789 x500 + 380620 x501 + 377037 x502 + 376247 x503 + 416764 x504
       + 380762 x505 + 434034 x506 + 384007 x507 + 387789 x508 + 410958 x509
       + 410159 x510 + 376212 x511 + 362835 x512 + 415556 x513 + 396202 x514
       + 407309 x515 + 361651 x516 + 415065 x517 + 363175 x518 + 396965 x519
       + 397893 x520 + 414812 x521 + 366094 x522 + 422982 x523 + 422855 x524
       + 389848 x525 + 422298 x526 + 394528 x527 + 412775 x528 + 384410 x529
       + 391136 x530 + 412782 x531 + 365023 x532 + 363707 x533 + 425703 x534
       + 379289 x535 + 396078 x536 + 382731 x537 + 398621 x538 + 433038 x539
       + 389263 x540 + 371279 x541 + 362690 x542 + 425459 x543 + 402796 x544
       + 416289 x545 + 393568 x546 + 398253 x547 + 438795 x548 + 372080 x549
       + 599578 x550
Subject To
 c1:   x13 - x16 + x27 + x35 + x36 - x40 - x42  = 0
 c2:   x63 - x66 + x77 + x85 + x86 - x90 - x92  = 1
 c3:   x113 - x116 + x127 + x135 + x136 - x140 - x142  = 1
 c4:   x163 - x166 + x177 + x185 + x186 - x190 - x192  = 0
 c5:   x213 - x216 + x227 + x235 + x236 - x240 - x242  = 0
 c6:   x263 - x266 + x277 + x285 + x286 - x290 - x292  = 0
 c7:   x313 - x316 + x327 + x335 + x336 - x340 - x342  = 0
 c8:   x363 - x366 + x377 + x385 + x386 - x390 - x392  = 0
 c9:   x413 - x416 + x427 + x435 + x436 - x440 - x442  = 0
 c10:  x463 - x466 + x477 + x485 + x486 - x490 - x492  = 0
 c11:  - x1 + x11 + x14 - x27 - x38 - x41 + x48 + x50  = 0
 c12:  - x51 + x61 + x64 - x77 - x88 - x91 + x98 + x100  = 0
 c13:  - x101 + x111 + x114 - x127 - x138 - x141 + x148 + x150  = 0
 c14:  - x151 + x161 + x164 - x177 - x188 - x191 + x198 + x200  = 1
 c15:  - x201 + x211 + x214 - x227 - x238 - x241 + x248 + x250  = 1
 c16:  - x251 + x261 + x264 - x277 - x288 - x291 + x298 + x300  = 0
 c17:  - x301 + x311 + x314 - x327 - x338 - x341 + x348 + x350  = 0
 c18:  - x351 + x361 + x364 - x377 - x388 - x391 + x398 + x400  = 0
 c19:  - x401 + x411 + x414 - x427 - x438 - x441 + x448 + x450  = -1
 c20:  - x451 + x461 + x464 - x477 - x488 - x491 + x498 + x500  = -1
 c21:  x3 - x7 - x9 + x10 - x12 - x15 - x24 + x25 + x34 - x35 + x37  = 0
 c22:  x53 - x57 - x59 + x60 - x62 - x65 - x74 + x75 + x84 - x85 + x87  = 0
 c23:  x103 - x107 - x109 + x110 - x112 - x115 - x124 + x125 + x134 - x135
       + x137  = 0
 c24:  x153 - x157 - x159 + x160 - x162 - x165 - x174 + x175 + x184 - x185
       + x187  = 0
 c25:  x203 - x207 - x209 + x210 - x212 - x215 - x224 + x225 + x234 - x235
       + x237  = 0
 c26:  x253 - x257 - x259 + x260 - x262 - x265 - x274 + x275 + x284 - x285
       + x287  = 0
 c27:  x303 - x307 - x309 + x310 - x312 - x315 - x324 + x325 + x334 - x335
       + x337  = 0
 c28:  x353 - x357 - x359 + x360 - x362 - x365 - x374 + x375 + x384 - x385
       + x387  = 1
 c29:  x403 - x407 - x409 + x410 - x412 - x415 - x424 + x425 + x434 - x435
       + x437  = 0
 c30:  x453 - x457 - x459 + x460 - x462 - x465 - x474 + x475 + x484 - x485
       + x487  = 0
 c31:  x1 - x14 + x20 + x23 + x24 + x29 + x31 + x42 + x45 - x49  = -1
 c32:  x51 - x64 + x70 + x73 + x74 + x79 + x81 + x92 + x95 - x99  = 0
 c33:  x101 - x114 + x120 + x123 + x124 + x129 + x131 + x142 + x145 - x149  = 0
 c34:  x151 - x164 + x170 + x173 + x174 + x179 + x181 + x192 + x195 - x199  = 0
 c35:  x201 - x214 + x220 + x223 + x224 + x229 + x231 + x242 + x245 - x249  = 0
 c36:  x251 - x264 + x270 + x273 + x274 + x279 + x281 + x292 + x295 - x299  = 0
 c37:  x301 - x314 + x320 + x323 + x324 + x329 + x331 + x342 + x345 - x349  = 0
 c38:  x351 - x364 + x370 + x373 + x374 + x379 + x381 + x392 + x395 - x399  = 0
 c39:  x401 - x414 + x420 + x423 + x424 + x429 + x431 + x442 + x445 - x449  = 0
 c40:  x451 - x464 + x470 + x473 + x474 + x479 + x481 + x492 + x495 - x499  = 0
 c41:  - x2 + x8 + x9 - x20 + x26 - x28 + x30 - x32 - x44  = 0
 c42:  - x52 + x58 + x59 - x70 + x76 - x78 + x80 - x82 - x94  = -1
 c43:  - x102 + x108 + x109 - x120 + x126 - x128 + x130 - x132 - x144  = 0
 c44:  - x152 + x158 + x159 - x170 + x176 - x178 + x180 - x182 - x194  = 0
 c45:  - x202 + x208 + x209 - x220 + x226 - x228 + x230 - x232 - x244  = 0
 c46:  - x252 + x258 + x259 - x270 + x276 - x278 + x280 - x282 - x294  = 0
 c47:  - x302 + x308 + x309 - x320 + x326 - x328 + x330 - x332 - x344  = 0
 c48:  - x352 + x358 + x359 - x370 + x376 - x378 + x380 - x382 - x394  = 0
 c49:  - x402 + x408 + x409 - x420 + x426 - x428 + x430 - x432 - x444  = 0
 c50:  - x452 + x458 + x459 - x470 + x476 - x478 + x480 - x482 - x494  = 0
 c51:  - x8 - x10 - x11 + x18 - x23 - x33 - x36 + x39 + x40 + x47  = 0
 c52:  - x58 - x60 - x61 + x68 - x73 - x83 - x86 + x89 + x90 + x97  = 0
 c53:  - x108 - x110 - x111 + x118 - x123 - x133 - x136 + x139 + x140 + x147
        = 0
 c54:  - x158 - x160 - x161 + x168 - x173 - x183 - x186 + x189 + x190 + x197
        = 0
 c55:  - x208 - x210 - x211 + x218 - x223 - x233 - x236 + x239 + x240 + x247
        = 0
 c56:  - x258 - x260 - x261 + x268 - x273 - x283 - x286 + x289 + x290 + x297
        = 0
 c57:  - x308 - x310 - x311 + x318 - x323 - x333 - x336 + x339 + x340 + x347
        = 0
 c58:  - x358 - x360 - x361 + x368 - x373 - x383 - x386 + x389 + x390 + x397
        = 0
 c59:  - x408 - x410 - x411 + x418 - x423 - x433 - x436 + x439 + x440 + x447
        = 0
 c60:  - x458 - x460 - x461 + x468 - x473 - x483 - x486 + x489 + x490 + x497
        = 0
 c61:  - x4 - x6 + x21 - x25 - x30 + x38 + x44 + x46  = 0
 c62:  - x54 - x56 + x71 - x75 - x80 + x88 + x94 + x96  = 0
 c63:  - x104 - x106 + x121 - x125 - x130 + x138 + x144 + x146  = 0
 c64:  - x154 - x156 + x171 - x175 - x180 + x188 + x194 + x196  = -1
 c65:  - x204 - x206 + x221 - x225 - x230 + x238 + x244 + x246  = 0
 c66:  - x254 - x256 + x271 - x275 - x280 + x288 + x294 + x296  = 0
 c67:  - x304 - x306 + x321 - x325 - x330 + x338 + x344 + x346  = 0
 c68:  - x354 - x356 + x371 - x375 - x380 + x388 + x394 + x396  = 0
 c69:  - x404 - x406 + x421 - x425 - x430 + x438 + x444 + x446  = 0
 c70:  - x454 - x456 + x471 - x475 - x480 + x488 + x494 + x496  = 0
 c71:  x5 + x6 + x12 - x17 - x18 - x19 - x26 - x31 + x32 + x33 - x37 - x46
       + x49 - x50  = 0
 c72:  x55 + x56 + x62 - x67 - x68 - x69 - x76 - x81 + x82 + x83 - x87 - x96
       + x99 - x100  = 0
 c73:  x105 + x106 + x112 - x117 - x118 - x119 - x126 - x131 + x132 + x133
       - x137 - x146 + x149 - x150  = 0
 c74:  x155 + x156 + x162 - x167 - x168 - x169 - x176 - x181 + x182 + x183
       - x187 - x196 + x199 - x200  = 0
 c75:  x205 + x206 + x212 - x217 - x218 - x219 - x226 - x231 + x232 + x233
       - x237 - x246 + x249 - x250  = 0
 c76:  x255 + x256 + x262 - x267 - x268 - x269 - x276 - x281 + x282 + x283
       - x287 - x296 + x299 - x300  = 1
 c77:  x305 + x306 + x312 - x317 - x318 - x319 - x326 - x331 + x332 + x333
       - x337 - x346 + x349 - x350  = 1
 c78:  x355 + x356 + x362 - x367 - x368 - x369 - x376 - x381 + x382 + x383
       - x387 - x396 + x399 - x400  = 0
 c79:  x405 + x406 + x412 - x417 - x418 - x419 - x426 - x431 + x432 + x433
       - x437 - x446 + x449 - x450  = 0
 c80:  x455 + x456 + x462 - x467 - x468 - x469 - x476 - x481 + x482 + x483
       - x487 - x496 + x499 - x500  = 0
 c81:  x2 - x5 + x7 + x16 + x17 - x22 - x29 - x34 + x41 + x43 - x47 - x48  = 0
 c82:  x52 - x55 + x57 + x66 + x67 - x72 - x79 - x84 + x91 + x93 - x97 - x98
        = 0
 c83:  x102 - x105 + x107 + x116 + x117 - x122 - x129 - x134 + x141 + x143
       - x147 - x148  = 0
 c84:  x152 - x155 + x157 + x166 + x167 - x172 - x179 - x184 + x191 + x193
       - x197 - x198  = 0
 c85:  x202 - x205 + x207 + x216 + x217 - x222 - x229 - x234 + x241 + x243
       - x247 - x248  = -1
 c86:  x252 - x255 + x257 + x266 + x267 - x272 - x279 - x284 + x291 + x293
       - x297 - x298  = -1
 c87:  x302 - x305 + x307 + x316 + x317 - x322 - x329 - x334 + x341 + x343
       - x347 - x348  = -1
 c88:  x352 - x355 + x357 + x366 + x367 - x372 - x379 - x384 + x391 + x393
       - x397 - x398  = -1
 c89:  x402 - x405 + x407 + x416 + x417 - x422 - x429 - x434 + x441 + x443
       - x447 - x448  = 0
 c90:  x452 - x455 + x457 + x466 + x467 - x472 - x479 - x484 + x491 + x493
       - x497 - x498  = 1
 c91:  - x3 + x4 - x13 + x15 + x19 - x21 + x22 + x28 - x39 - x43 - x45  = 1
 c92:  - x53 + x54 - x63 + x65 + x69 - x71 + x72 + x78 - x89 - x93 - x95  = 0
 c93:  - x103 + x104 - x113 + x115 + x119 - x121 + x122 + x128 - x139 - x143
       - x145  = -1
 c94:  - x153 + x154 - x163 + x165 + x169 - x171 + x172 + x178 - x189 - x193
       - x195  = 0
 c95:  - x203 + x204 - x213 + x215 + x219 - x221 + x222 + x228 - x239 - x243
       - x245  = 0
 c96:  - x253 + x254 - x263 + x265 + x269 - x271 + x272 + x278 - x289 - x293
       - x295  = 0
 c97:  - x303 + x304 - x313 + x315 + x319 - x321 + x322 + x328 - x339 - x343
       - x345  = 0
 c98:  - x353 + x354 - x363 + x365 + x369 - x371 + x372 + x378 - x389 - x393
       - x395  = 0
 c99:  - x403 + x404 - x413 + x415 + x419 - x421 + x422 + x428 - x439 - x443
       - x445  = 1
 c100: - x453 + x454 - x463 + x465 + x469 - x471 + x472 + x478 - x489 - x493
       - x495  = 0
 c101: 4 x1 + 4 x51 + 4 x101 + 4 x151 + 4 x201 + 4 x251 + 4 x301 + 4 x351
       + 4 x401 + 4 x451 - 5 x501 <= 0
 c102: 4 x2 + 4 x52 + 4 x102 + 4 x152 + 4 x202 + 4 x252 + 4 x302 + 4 x352
       + 4 x402 + 4 x452 - 5 x502 <= 0
 c103: 4 x3 + 4 x53 + 4 x103 + 4 x153 + 4 x203 + 4 x253 + 4 x303 + 4 x353
       + 4 x403 + 4 x453 - 5 x503 <= 0
 c104: 4 x4 + 4 x54 + 4 x104 + 4 x154 + 4 x204 + 4 x254 + 4 x304 + 4 x354
       + 4 x404 + 4 x454 - 5 x504 <= 0
 c105: 4 x5 + 4 x55 + 4 x105 + 4 x155 + 4 x205 + 4 x255 + 4 x305 + 4 x355
       + 4 x405 + 4 x455 - 5 x505 <= 0
 c106: 4 x6 + 4 x56 + 4 x106 + 4 x156 + 4 x206 + 4 x256 + 4 x306 + 4 x356
       + 4 x406 + 4 x456 - 5 x506 <= 0
 c107: 4 x7 + 4 x57 + 4 x107 + 4 x157 + 4 x207 + 4 x257 + 4 x307 + 4 x357
       + 4 x407 + 4 x457 - 5 x507 <= 0
 c108: 4 x8 + 4 x58 + 4 x108 + 4 x158 + 4 x208 + 4 x258 + 4 x308 + 4 x358
       + 4 x408 + 4 x458 - 5 x508 <= 0
 c109: 4 x9 + 4 x59 + 4 x109 + 4 x159 + 4 x209 + 4 x259 + 4 x309 + 4 x359
       + 4 x409 + 4 x459 - 5 x509 <= 0
 c110: 4 x10 + 4 x60 + 4 x110 + 4 x160 + 4 x210 + 4 x260 + 4 x310 + 4 x360
       + 4 x410 + 4 x460 - 5 x510 <= 0
 c111: 4 x11 + 4 x61 + 4 x111 + 4 x161 + 4 x211 + 4 x261 + 4 x311 + 4 x361
       + 4 x411 + 4 x461 - 5 x511 <= 0
 c112: 4 x12 + 4 x62 + 4 x112 + 4 x162 + 4 x212 + 4 x262 + 4 x312 + 4 x362
       + 4 x412 + 4 x462 - 5 x512 <= 0
 c113: 4 x13 + 4 x63 + 4 x113 + 4 x163 + 4 x213 + 4 x263 + 4 x313 + 4 x363
       + 4 x413 + 4 x463 - 5 x513 <= 0
 c114: 4 x14 + 4 x64 + 4 x114 + 4 x164 + 4 x214 + 4 x264 + 4 x314 + 4 x364
       + 4 x414 + 4 x464 - 5 x514 <= 0
 c115: 4 x15 + 4 x65 + 4 x115 + 4 x165 + 4 x215 + 4 x265 + 4 x315 + 4 x365
       + 4 x415 + 4 x465 - 5 x515 <= 0
 c116: 4 x16 + 4 x66 + 4 x116 + 4 x166 + 4 x216 + 4 x266 + 4 x316 + 4 x366
       + 4 x416 + 4 x466 - 5 x516 <= 0
 c117: 4 x17 + 4 x67 + 4 x117 + 4 x167 + 4 x217 + 4 x267 + 4 x317 + 4 x367
       + 4 x417 + 4 x467 - 5 x517 <= 0
 c118: 4 x18 + 4 x68 + 4 x118 + 4 x168 + 4 x218 + 4 x268 + 4 x318 + 4 x368
       + 4 x418 + 4 x468 - 5 x518 <= 0
 c119: 4 x19 + 4 x69 + 4 x119 + 4 x169 + 4 x219 + 4 x269 + 4 x319 + 4 x369
       + 4 x419 + 4 x469 - 5 x519 <= 0
 c120: 4 x20 + 4 x70 + 4 x120 + 4 x170 + 4 x220 + 4 x270 + 4 x320 + 4 x370
       + 4 x420 + 4 x470 - 5 x520 <= 0
 c121: 4 x21 + 4 x71 + 4 x121 + 4 x171 + 4 x221 + 4 x271 + 4 x321 + 4 x371
       + 4 x421 + 4 x471 - 5 x521 <= 0
 c122: 4 x22 + 4 x72 + 4 x122 + 4 x172 + 4 x222 + 4 x272 + 4 x322 + 4 x372
       + 4 x422 + 4 x472 - 5 x522 <= 0
 c123: 4 x23 + 4 x73 + 4 x123 + 4 x173 + 4 x223 + 4 x273 + 4 x323 + 4 x373
       + 4 x423 + 4 x473 - 5 x523 <= 0
 c124: 4 x24 + 4 x74 + 4 x124 + 4 x174 + 4 x224 + 4 x274 + 4 x324 + 4 x374
       + 4 x424 + 4 x474 - 5 x524 <= 0
 c125: 4 x25 + 4 x75 + 4 x125 + 4 x175 + 4 x225 + 4 x275 + 4 x325 + 4 x375
       + 4 x425 + 4 x475 - 5 x525 <= 0
 c126: 4 x26 + 4 x76 + 4 x126 + 4 x176 + 4 x226 + 4 x276 + 4 x326 + 4 x376
       + 4 x426 + 4 x476 - 5 x526 <= 0
 c127: 4 x27 + 4 x77 + 4 x127 + 4 x177 + 4 x227 + 4 x277 + 4 x327 + 4 x377
       + 4 x427 + 4 x477 - 5 x527 <= 0
 c128: 4 x28 + 4 x78 + 4 x128 + 4 x178 + 4 x228 + 4 x278 + 4 x328 + 4 x378
       + 4 x428 + 4 x478 - 5 x528 <= 0
 c129: 4 x29 + 4 x79 + 4 x129 + 4 x179 + 4 x229 + 4 x279 + 4 x329 + 4 x379
       + 4 x429 + 4 x479 - 5 x529 <= 0
 c130: 4 x30 + 4 x80 + 4 x130 + 4 x180 + 4 x230 + 4 x280 + 4 x330 + 4 x380
       + 4 x430 + 4 x480 - 5 x530 <= 0
 c131: 4 x31 + 4 x81 + 4 x131 + 4 x181 + 4 x231 + 4 x281 + 4 x331 + 4 x381
       + 4 x431 + 4 x481 - 5 x531 <= 0
 c132: 4 x32 + 4 x82 + 4 x132 + 4 x182 + 4 x232 + 4 x282 + 4 x332 + 4 x382
       + 4 x432 + 4 x482 - 5 x532 <= 0
 c133: 4 x33 + 4 x83 + 4 x133 + 4 x183 + 4 x233 + 4 x283 + 4 x333 + 4 x383
       + 4 x433 + 4 x483 - 5 x533 <= 0
 c134: 4 x34 + 4 x84 + 4 x134 + 4 x184 + 4 x234 + 4 x284 + 4 x334 + 4 x384
       + 4 x434 + 4 x484 - 5 x534 <= 0
 c135: 4 x35 + 4 x85 + 4 x135 + 4 x185 + 4 x235 + 4 x285 + 4 x335 + 4 x385
       + 4 x435 + 4 x485 - 5 x535 <= 0
 c136: 4 x36 + 4 x86 + 4 x136 + 4 x186 + 4 x236 + 4 x286 + 4 x336 + 4 x386
       + 4 x436 + 4 x486 - 5 x536 <= 0
 c137: 4 x37 + 4 x87 + 4 x137 + 4 x187 + 4 x237 + 4 x287 + 4 x337 + 4 x387
       + 4 x437 + 4 x487 - 5 x537 <= 0
 c138: 4 x38 + 4 x88 + 4 x138 + 4 x188 + 4 x238 + 4 x288 + 4 x338 + 4 x388
       + 4 x438 + 4 x488 - 5 x538 <= 0
 c139: 4 x39 + 4 x89 + 4 x139 + 4 x189 + 4 x239 + 4 x289 + 4 x339 + 4 x389
       + 4 x439 + 4 x489 - 5 x539 <= 0
 c140: 4 x40 + 4 x90 + 4 x140 + 4 x190 + 4 x240 + 4 x290 + 4 x340 + 4 x390
       + 4 x440 + 4 x490 - 5 x540 <= 0
 c141: 4 x41 + 4 x91 + 4 x141 + 4 x191 + 4 x241 + 4 x291 + 4 x341 + 4 x391
       + 4 x441 + 4 x491 - 5 x541 <= 0
 c142: 4 x42 + 4 x92 + 4 x142 + 4 x192 + 4 x242 + 4 x292 + 4 x342 + 4 x392
       + 4 x442 + 4 x492 - 5 x542 <= 0
 c143: 4 x43 + 4 x93 + 4 x143 + 4 x193 + 4 x243 + 4 x293 + 4 x343 + 4 x393
       + 4 x443 + 4 x493 - 5 x543 <= 0
 c144: 4 x44 + 4 x94 + 4 x144 + 4 x194 + 4 x244 + 4 x294 + 4 x344 + 4 x394
       + 4 x444 + 4 x494 - 5 x544 <= 0
 c145: 4 x45 + 4 x95 + 4 x145 + 4 x195 + 4 x245 + 4 x295 + 4 x345 + 4 x395
       + 4 x445 + 4 x495 - 5 x545 <= 0
 c146: 4 x46 + 4 x96 + 4 x146 + 4 x196 + 4 x246 + 4 x296 + 4 x346 + 4 x396
       + 4 x446 + 4 x496 - 5 x546 <= 0
 c147: 4 x47 + 4 x97 + 4 x147 + 4 x197 + 4 x247 + 4 x297 + 4 x347 + 4 x397
       + 4 x447 + 4 x497 - 5 x547 <= 0
 c148: 4 x48 + 4 x98 + 4 x148 + 4 x198 + 4 x248 + 4 x298 + 4 x348 + 4 x398
       + 4 x448 + 4 x498 - 5 x548 <= 0
 c149: 4 x49 + 4 x99 + 4 x149 + 4 x199 + 4 x249 + 4 x299 + 4 x349 + 4 x399
       + 4 x449 + 4 x499 - 5 x549 <= 0
 c150: 4 x50 + 4 x100 + 4 x150 + 4 x200 + 4 x250 + 4 x300 + 4 x350 + 4 x400
       + 4 x450 + 4 x500 - 5 x550 <= 0
Bounds
 0 <= x1 <= 1
 0 <= x2 <= 1
 0 <= x3 <= 1
 0 <= x4 <= 1
 0 <= x5 <= 1
 0 <= x6 <= 1
 0 <= x7 <= 1
 0 <= x8 <= 1
 0 <= x9 <= 1
 0 <= x10 <= 1
 0 <= x11 <= 1
 0 <= x12 <= 1
 0 <= x13 <= 1
 0 <= x14 <= 1
 0 <= x15 <= 1
 0 <= x16 <= 1
 0 <= x17 <= 1
 0 <= x18 <= 1
 0 <= x19 <= 1
 0 <= x20 <= 1
 0 <= x21 <= 1
 0 <= x22 <= 1
 0 <= x23 <= 1
 0 <= x24 <= 1
 0 <= x25 <= 1
 0 <= x26 <= 1
 0 <= x27 <= 1
 0 <= x28 <= 1
 0 <= x29 <= 1
 0 <= x30 <= 1
 0 <= x31 <= 1
 0 <= x32 <= 1
 0 <= x33 <= 1
 0 <= x34 <= 1
 0 <= x35 <= 1
 0 <= x36 <= 1
 0 <= x37 <= 1
 0 <= x38 <= 1
 0 <= x39 <= 1
 0 <= x40 <= 1
 0 <= x41 <= 1
 0 <= x42 <= 1
 0 <= x43 <= 1
 0 <= x44 <= 1
 0 <= x45 <= 1
 0 <= x46 <= 1
 0 <= x47 <= 1
 0 <= x48 <= 1
 0 <= x49 <= 1
 0 <= x50 <= 1
 0 <= x51 <= 1
 0 <= x52 <= 1
 0 <= x53 <= 1
 0 <= x54 <= 1
 0 <= x55 <= 1
 0 <= x56 <= 1
 0 <= x57 <= 1
 0 <= x58 <= 1
 0 <= x59 <= 1
 0 <= x60 <= 1
 0 <= x61 <= 1
 0 <= x62 <= 1
 0 <= x63 <= 1
 0 <= x64 <= 1
 0 <= x65 <= 1
 0 <= x66 <= 1
 0 <= x67 <= 1
 0 <= x68 <= 1
 0 <= x69 <= 1
 0 <= x70 <= 1
 0 <= x71 <= 1
 0 <= x72 <= 1
 0 <= x73 <= 1
 0 <= x74 <= 1
 0 <= x75 <= 1
 0 <= x76 <= 1
 0 <= x77 <= 1
 0 <= x78 <= 1
 0 <= x79 <= 1
 0 <= x80 <= 1
 0 <= x81 <= 1
 0 <= x82 <= 1
 0 <= x83 <= 1
 0 <= x84 <= 1
 0 <= x85 <= 1
 0 <= x86 <= 1
 0 <= x87 <= 1
 0 <= x88 <= 1
 0 <= x89 <= 1
 0 <= x90 <= 1
 0 <= x91 <= 1
 0 <= x92 <= 1
 0 <= x93 <= 1
 0 <= x94 <= 1
 0 <= x95 <= 1
 0 <= x96 <= 1
 0 <= x97 <= 1
 0 <= x98 <= 1
 0 <= x99 <= 1
 0 <= x100 <= 1
 0 <= x101 <= 1
 0 <= x102 <= 1
 0 <= x103 <= 1
 0 <= x104 <= 1
 0 <= x105 <= 1
 0 <= x106 <= 1
 0 <= x107 <= 1
 0 <= x108 <= 1
 0 <= x109 <= 1
 0 <= x110 <= 1
 0 <= x111 <= 1
 0 <= x112 <= 1
 0 <= x113 <= 1
 0 <= x114 <= 1
 0 <= x115 <= 1
 0 <= x116 <= 1
 0 <= x117 <= 1
 0 <= x118 <= 1
 0 <= x119 <= 1
 0 <= x120 <= 1
 0 <= x121 <= 1
 0 <= x122 <= 1
 0 <= x123 <= 1
 0 <= x124 <= 1
 0 <= x125 <= 1
 0 <= x126 <= 1
 0 <= x127 <= 1
 0 <= x128 <= 1
 0 <= x129 <= 1
 0 <= x130 <= 1
 0 <= x131 <= 1
 0 <= x132 <= 1
 0 <= x133 <= 1
 0 <= x134 <= 1
 0 <= x135 <= 1
 0 <= x136 <= 1
 0 <= x137 <= 1
 0 <= x138 <= 1
 0 <= x139 <= 1
 0 <= x140 <= 1
 0 <= x141 <= 1
 0 <= x142 <= 1
 0 <= x143 <= 1
 0 <= x144 <= 1
 0 <= x145 <= 1
 0 <= x146 <= 1
 0 <= x147 <= 1
 0 <= x148 <= 1
 0 <= x149 <= 1
 0 <= x150 <= 1
 0 <= x151 <= 1
 0 <= x152 <= 1
 0 <= x153 <= 1
 0 <= x154 <= 1
 0 <= x155 <= 1
 0 <= x156 <= 1
 0 <= x157 <= 1
 0 <= x158 <= 1
 0 <= x159 <= 1
 0 <= x160 <= 1
 0 <= x161 <= 1
 0 <= x162 <= 1
 0 <= x163 <= 1
 0 <= x164 <= 1
 0 <= x165 <= 1
 0 <= x166 <= 1
 0 <= x167 <= 1
 0 <= x168 <= 1
 0 <= x169 <= 1
 0 <= x170 <= 1
 0 <= x171 <= 1
 0 <= x172 <= 1
 0 <= x173 <= 1
 0 <= x174 <= 1
 0 <= x175 <= 1
 0 <= x176 <= 1
 0 <= x177 <= 1
 0 <= x178 <= 1
 0 <= x179 <= 1
 0 <= x180 <= 1
 0 <= x181 <= 1
 0 <= x182 <= 1
 0 <= x183 <= 1
 0 <= x184 <= 1
 0 <= x185 <= 1
 0 <= x186 <= 1
 0 <= x187 <= 1
 0 <= x188 <= 1
 0 <= x189 <= 1
 0 <= x190 <= 1
 0 <= x191 <= 1
 0 <= x192 <= 1
 0 <= x193 <= 1
 0 <= x194 <= 1
 0 <= x195 <= 1
 0 <= x196 <= 1
 0 <= x197 <= 1
 0 <= x198 <= 1
 0 <= x199 <= 1
 0 <= x200 <= 1
 0 <= x201 <= 1
 0 <= x202 <= 1
 0 <= x203 <= 1
 0 <= x204 <= 1
 0 <= x205 <= 1
 0 <= x206 <= 1
 0 <= x207 <= 1
 0 <= x208 <= 1
 0 <= x209 <= 1
 0 <= x210 <= 1
 0 <= x211 <= 1
 0 <= x212 <= 1
 0 <= x213 <= 1
 0 <= x214 <= 1
 0 <= x215 <= 1
 0 <= x216 <= 1
 0 <= x217 <= 1
 0 <= x218 <= 1
 0 <= x219 <= 1
 0 <= x220 <= 1
 0 <= x221 <= 1
 0 <= x222 <= 1
 0 <= x223 <= 1
 0 <= x224 <= 1
 0 <= x225 <= 1
 0 <= x226 <= 1
 0 <= x227 <= 1
 0 <= x228 <= 1
 0 <= x229 <= 1
 0 <= x230 <= 1
 0 <= x231 <= 1
 0 <= x232 <= 1
 0 <= x233 <= 1
 0 <= x234 <= 1
 0 <= x235 <= 1
 0 <= x236 <= 1
 0 <= x237 <= 1
 0 <= x238 <= 1
 0 <= x239 <= 1
 0 <= x240 <= 1
 0 <= x241 <= 1
 0 <= x242 <= 1
 0 <= x243 <= 1
 0 <= x244 <= 1
 0 <= x245 <= 1
 0 <= x246 <= 1
 0 <= x247 <= 1
 0 <= x248 <= 1
 0 <= x249 <= 1
 0 <= x250 <= 1
 0 <= x251 <= 1
 0 <= x252 <= 1
 0 <= x253 <= 1
 0 <= x254 <= 1
 0 <= x255 <= 1
 0 <= x256 <= 1
 0 <= x257 <= 1
 0 <= x258 <= 1
 0 <= x259 <= 1
 0 <= x260 <= 1
 0 <= x261 <= 1
 0 <= x262 <= 1
 0 <= x263 <= 1
 0 <= x264 <= 1
 0 <= x265 <= 1
 0 <= x266 <= 1
 0 <= x267 <= 1
 0 <= x268 <= 1
 0 <= x269 <= 1
 0 <= x270 <= 1
 0 <= x271 <= 1
 0 <= x272 <= 1
 0 <= x273 <= 1
 0 <= x274 <= 1
 0 <= x275 <= 1
 0 <= x276 <= 1
 0 <= x277 <= 1
 0 <= x278 <= 1
 0 <= x279 <= 1
 0 <= x280 <= 1
 0 <= x281 <= 1
 0 <= x282 <= 1
 0 <= x283 <= 1
 0 <= x284 <= 1
 0 <= x285 <= 1
 0 <= x286 <= 1
 0 <= x287 <= 1
 0 <= x288 <= 1
 0 <= x289 <= 1
 0 <= x290 <= 1
 0 <= x291 <= 1
 0 <= x292 <= 1
 0 <= x293 <= 1
 0 <= x294 <= 1
 0 <= x295 <= 1
 0 <= x296 <= 1
 0 <= x297 <= 1
 0 <= x298 <= 1
 0 <= x299 <= 1
 0 <= x300 <= 1
 0 <= x301 <= 1
 0 <= x302 <= 1
 0 <= x303 <= 1
 0 <= x304 <= 1
 0 <= x305 <= 1
 0 <= x306 <= 1
 0 <= x307 <= 1
 0 <= x308 <= 1
 0 <= x309 <= 1
 0 <= x310 <= 1
 0 <= x311 <= 1
 0 <= x312 <= 1
 0 <= x313 <= 1
 0 <= x314 <= 1
 0 <= x315 <= 1
 0 <= x316 <= 1
 0 <= x317 <= 1
 0 <= x318 <= 1
 0 <= x319 <= 1
 0 <= x320 <= 1
 0 <= x321 <= 1
 0 <= x322 <= 1
 0 <= x323 <= 1
 0 <= x324 <= 1
 0 <= x325 <= 1
 0 <= x326 <= 1
 0 <= x327 <= 1
 0 <= x328 <= 1
 0 <= x329 <= 1
 0 <= x330 <= 1
 0 <= x331 <= 1
 0 <= x332 <= 1
 0 <= x333 <= 1
 0 <= x334 <= 1
 0 <= x335 <= 1
 0 <= x336 <= 1
 0 <= x337 <= 1
 0 <= x338 <= 1
 0 <= x339 <= 1
 0 <= x340 <= 1
 0 <= x341 <= 1
 0 <= x342 <= 1
 0 <= x343 <= 1
 0 <= x344 <= 1
 0 <= x345 <= 1
 0 <= x346 <= 1
 0 <= x347 <= 1
 0 <= x348 <= 1
 0 <= x349 <= 1
 0 <= x350 <= 1
 0 <= x351 <= 1
 0 <= x352 <= 1
 0 <= x353 <= 1
 0 <= x354 <= 1
 0 <= x355 <= 1
 0 <= x356 <= 1
 0 <= x357 <= 1
 0 <= x358 <= 1
 0 <= x359 <= 1
 0 <= x360 <= 1
 0 <= x361 <= 1
 0 <= x362 <= 1
 0 <= x363 <= 1
 0 <= x364 <= 1
 0 <= x365 <= 1
 0 <= x366 <= 1
 0 <= x367 <= 1
 0 <= x368 <= 1
 0 <= x369 <= 1
 0 <= x370 <= 1
 0 <= x371 <= 1
 0 <= x372 <= 1
 0 <= x373 <= 1
 0 <= x374 <= 1
 0 <= x375 <= 1
 0 <= x376 <= 1
 0 <= x377 <= 1
 0 <= x378 <= 1
 0 <= x379 <= 1
 0 <= x380 <= 1
 0 <= x381 <= 1
 0 <= x382 <= 1
 0 <= x383 <= 1
 0 <= x384 <= 1
 0 <= x385 <= 1
 0 <= x386 <= 1
 0 <= x387 <= 1
 0 <= x388 <= 1
 0 <= x389 <= 1
 0 <= x390 <= 1
 0 <= x391 <= 1
 0 <= x392 <= 1
 0 <= x393 <= 1
 0 <= x394 <= 1
 0 <= x395 <= 1
 0 <= x396 <= 1
 0 <= x397 <= 1
 0 <= x398 <= 1
 0 <= x399 <= 1
 0 <= x400 <= 1
 0 <= x401 <= 1
 0 <= x402 <= 1
 0 <= x403 <= 1
 0 <= x404 <= 1
 0 <= x405 <= 1
 0 <= x406 <= 1
 0 <= x407 <= 1
 0 <= x408 <= 1
 0 <= x409 <= 1
 0 <= x410 <= 1
 0 <= x411 <= 1
 0 <= x412 <= 1
 0 <= x413 <= 1
 0 <= x414 <= 1
 0 <= x415 <= 1
 0 <= x416 <= 1
 0 <= x417 <= 1
 0 <= x418 <= 1
 0 <= x419 <= 1
 0 <= x420 <= 1
 0 <= x421 <= 1
 0 <= x422 <= 1
 0 <= x423 <= 1
 0 <= x424 <= 1
 0 <= x425 <= 1
 0 <= x426 <= 1
 0 <= x427 <= 1
 0 <= x428 <= 1
 0 <= x429 <= 1
 0 <= x430 <= 1
 0 <= x431 <= 1
 0 <= x432 <= 1
 0 <= x433 <= 1
 0 <= x434 <= 1
 0 <= x435 <= 1
 0 <= x436 <= 1
 0 <= x437 <= 1
 0 <= x438 <= 1
 0 <= x439 <= 1
 0 <= x440 <= 1
 0 <= x441 <= 1
 0 <= x442 <= 1
 0 <= x443 <= 1
 0 <= x444 <= 1
 0 <= x445 <= 1
 0 <= x446 <= 1
 0 <= x447 <= 1
 0 <= x448 <= 1
 0 <= x449 <= 1
 0 <= x450 <= 1
 0 <= x451 <= 1
 0 <= x452 <= 1
 0 <= x453 <= 1
 0 <= x454 <= 1
 0 <= x455 <= 1
 0 <= x456 <= 1
 0 <= x457 <= 1
 0 <= x458 <= 1
 0 <= x459 <= 1
 0 <= x460 <= 1
 0 <= x461 <= 1
 0 <= x462 <= 1
 0 <= x463 <= 1
 0 <= x464 <= 1
 0 <= x465 <= 1
 0 <= x466 <= 1
 0 <= x467 <= 1
 0 <= x468 <= 1
 0 <= x469 <= 1
 0 <= x470 <= 1
 0 <= x471 <= 1
 0 <= x472 <= 1
 0 <= x473 <= 1
 0 <= x474 <= 1
 0 <= x475 <= 1
 0 <= x476 <= 1
 0 <= x477 <= 1
 0 <= x478 <= 1
 0 <= x479 <= 1
 0 <= x480 <= 1
 0 <= x481 <= 1
 0 <= x482 <= 1
 0 <= x483 <= 1
 0 <= x484 <= 1
 0 <= x485 <= 1
 0 <= x486 <= 1
 0 <= x487 <= 1
 0 <= x488 <= 1
 0 <= x489 <= 1
 0 <= x490 <= 1
 0 <= x491 <= 1
 0 <= x492 <= 1
 0 <= x493 <= 1
 0 <= x494 <= 1
 0 <= x495 <= 1
 0 <= x496 <= 1
 0 <= x497 <= 1
 0 <= x498 <= 1
 0 <= x499 <= 1
 0 <= x500 <= 1
 0 <= x501 <= 1
 0 <= x502 <= 1
 0 <= x503 <= 1
 0 <= x504 <= 1
 0 <= x505 <= 1
 0 <= x506 <= 1
 0 <= x507 <= 1
 0 <= x508 <= 1
 0 <= x509 <= 1
 0 <= x510 <= 1
 0 <= x511 <= 1
 0 <= x512 <= 1
 0 <= x513 <= 1
 0 <= x514 <= 1
 0 <= x515 <= 1
 0 <= x516 <= 1
 0 <= x517 <= 1
 0 <= x518 <= 1
 0 <= x519 <= 1
 0 <= x520 <= 1
 0 <= x521 <= 1
 0 <= x522 <= 1
 0 <= x523 <= 1
 0 <= x524 <= 1
 0 <= x525 <= 1
 0 <= x526 <= 1
 0 <= x527 <= 1
 0 <= x528 <= 1
 0 <= x529 <= 1
 0 <= x530 <= 1
 0 <= x531 <= 1
 0 <= x532 <= 1
 0 <= x533 <= 1
 0 <= x534 <= 1
 0 <= x535 <= 1
 0 <= x536 <= 1
 0 <= x537 <= 1
 0 <= x538 <= 1
 0 <= x539 <= 1
 0 <= x540 <= 1
 0 <= x541 <= 1
 0 <= x542 <= 1
 0 <= x543 <= 1
 0 <= x544 <= 1
 0 <= x545 <= 1
 0 <= x546 <= 1
 0 <= x547 <= 1
 0 <= x548 <= 1
 0 <= x549 <= 1
 0 <= x550 <= 1
Binaries
 x501  x502  x503  x504  x505  x506  x507  x508  x509  x510  x511  x512  x513 
 x514  x515  x516  x517  x518  x519  x520  x521  x522  x523  x524  x525  x526 
 x527  x528  x529  x530  x531  x532  x533  x534  x535  x536  x537  x538  x539 
 x540  x541  x542  x543  x544  x545  x546  x547  x548  x549  x550 
End
